(set-logic QF_UF)
(declare-const P_0_0 Bool)
(declare-const P_0_1 Bool)
(declare-const P_0_2 Bool)
(declare-const P_0_3 Bool)
(declare-const P_0_4 Bool)
(declare-const P_0_5 Bool)
(declare-const P_0_6 Bool)
(declare-const P_0_7 Bool)
(declare-const P_0_8 Bool)
(declare-const P_0_9 Bool)
(declare-const P_0_10 Bool)
(declare-const P_0_11 Bool)
(declare-const P_0_12 Bool)
(declare-const P_0_13 Bool)
(declare-const P_0_14 Bool)
(declare-const P_0_15 Bool)
(declare-const P_0_16 Bool)
(declare-const P_0_17 Bool)
(declare-const P_0_18 Bool)
(declare-const P_0_19 Bool)
(declare-const P_1_0 Bool)
(declare-const P_1_1 Bool)
(declare-const P_1_2 Bool)
(declare-const P_1_3 Bool)
(declare-const P_1_4 Bool)
(declare-const P_1_5 Bool)
(declare-const P_1_6 Bool)
(declare-const P_1_7 Bool)
(declare-const P_1_8 Bool)
(declare-const P_1_9 Bool)
(declare-const P_1_10 Bool)
(declare-const P_1_11 Bool)
(declare-const P_1_12 Bool)
(declare-const P_1_13 Bool)
(declare-const P_1_14 Bool)
(declare-const P_1_15 Bool)
(declare-const P_1_16 Bool)
(declare-const P_1_17 Bool)
(declare-const P_1_18 Bool)
(declare-const P_1_19 Bool)
(declare-const P_2_0 Bool)
(declare-const P_2_1 Bool)
(declare-const P_2_2 Bool)
(declare-const P_2_3 Bool)
(declare-const P_2_4 Bool)
(declare-const P_2_5 Bool)
(declare-const P_2_6 Bool)
(declare-const P_2_7 Bool)
(declare-const P_2_8 Bool)
(declare-const P_2_9 Bool)
(declare-const P_2_10 Bool)
(declare-const P_2_11 Bool)
(declare-const P_2_12 Bool)
(declare-const P_2_13 Bool)
(declare-const P_2_14 Bool)
(declare-const P_2_15 Bool)
(declare-const P_2_16 Bool)
(declare-const P_2_17 Bool)
(declare-const P_2_18 Bool)
(declare-const P_2_19 Bool)
(declare-const P_3_0 Bool)
(declare-const P_3_1 Bool)
(declare-const P_3_2 Bool)
(declare-const P_3_3 Bool)
(declare-const P_3_4 Bool)
(declare-const P_3_5 Bool)
(declare-const P_3_6 Bool)
(declare-const P_3_7 Bool)
(declare-const P_3_8 Bool)
(declare-const P_3_9 Bool)
(declare-const P_3_10 Bool)
(declare-const P_3_11 Bool)
(declare-const P_3_12 Bool)
(declare-const P_3_13 Bool)
(declare-const P_3_14 Bool)
(declare-const P_3_15 Bool)
(declare-const P_3_16 Bool)
(declare-const P_3_17 Bool)
(declare-const P_3_18 Bool)
(declare-const P_3_19 Bool)
(declare-const P_4_0 Bool)
(declare-const P_4_1 Bool)
(declare-const P_4_2 Bool)
(declare-const P_4_3 Bool)
(declare-const P_4_4 Bool)
(declare-const P_4_5 Bool)
(declare-const P_4_6 Bool)
(declare-const P_4_7 Bool)
(declare-const P_4_8 Bool)
(declare-const P_4_9 Bool)
(declare-const P_4_10 Bool)
(declare-const P_4_11 Bool)
(declare-const P_4_12 Bool)
(declare-const P_4_13 Bool)
(declare-const P_4_14 Bool)
(declare-const P_4_15 Bool)
(declare-const P_4_16 Bool)
(declare-const P_4_17 Bool)
(declare-const P_4_18 Bool)
(declare-const P_4_19 Bool)
(assert (or P_0_0 P_0_1 P_0_2 P_0_3 P_0_4 P_0_5 P_0_6 P_0_7 P_0_8 P_0_9 P_0_10 P_0_11 P_0_12 P_0_13 P_0_14 P_0_15 P_0_16 P_0_17 P_0_18 P_0_19))
(assert (or P_1_0 P_1_1 P_1_2 P_1_3 P_1_4 P_1_5 P_1_6 P_1_7 P_1_8 P_1_9 P_1_10 P_1_11 P_1_12 P_1_13 P_1_14 P_1_15 P_1_16 P_1_17 P_1_18 P_1_19))
(assert (or P_2_0 P_2_1 P_2_2 P_2_3 P_2_4 P_2_5 P_2_6 P_2_7 P_2_8 P_2_9 P_2_10 P_2_11 P_2_12 P_2_13 P_2_14 P_2_15 P_2_16 P_2_17 P_2_18 P_2_19))
(assert (or P_3_0 P_3_1 P_3_2 P_3_3 P_3_4 P_3_5 P_3_6 P_3_7 P_3_8 P_3_9 P_3_10 P_3_11 P_3_12 P_3_13 P_3_14 P_3_15 P_3_16 P_3_17 P_3_18 P_3_19))
(assert (or P_4_0 P_4_1 P_4_2 P_4_3 P_4_4 P_4_5 P_4_6 P_4_7 P_4_8 P_4_9 P_4_10 P_4_11 P_4_12 P_4_13 P_4_14 P_4_15 P_4_16 P_4_17 P_4_18 P_4_19))
(assert (or (not P_0_0) (not P_1_0)))
(assert (or (not P_0_0) (not P_2_0)))
(assert (or (not P_0_0) (not P_3_0)))
(assert (or (not P_0_0) (not P_4_0)))
(assert (or (not P_1_0) (not P_2_0)))
(assert (or (not P_1_0) (not P_3_0)))
(assert (or (not P_1_0) (not P_4_0)))
(assert (or (not P_2_0) (not P_3_0)))
(assert (or (not P_2_0) (not P_4_0)))
(assert (or (not P_3_0) (not P_4_0)))
(assert (or (not P_0_1) (not P_1_1)))
(assert (or (not P_0_1) (not P_2_1)))
(assert (or (not P_0_1) (not P_3_1)))
(assert (or (not P_0_1) (not P_4_1)))
(assert (or (not P_1_1) (not P_2_1)))
(assert (or (not P_1_1) (not P_3_1)))
(assert (or (not P_1_1) (not P_4_1)))
(assert (or (not P_2_1) (not P_3_1)))
(assert (or (not P_2_1) (not P_4_1)))
(assert (or (not P_3_1) (not P_4_1)))
(assert (or (not P_0_2) (not P_1_2)))
(assert (or (not P_0_2) (not P_2_2)))
(assert (or (not P_0_2) (not P_3_2)))
(assert (or (not P_0_2) (not P_4_2)))
(assert (or (not P_1_2) (not P_2_2)))
(assert (or (not P_1_2) (not P_3_2)))
(assert (or (not P_1_2) (not P_4_2)))
(assert (or (not P_2_2) (not P_3_2)))
(assert (or (not P_2_2) (not P_4_2)))
(assert (or (not P_3_2) (not P_4_2)))
(assert (or (not P_0_3) (not P_1_3)))
(assert (or (not P_0_3) (not P_2_3)))
(assert (or (not P_0_3) (not P_3_3)))
(assert (or (not P_0_3) (not P_4_3)))
(assert (or (not P_1_3) (not P_2_3)))
(assert (or (not P_1_3) (not P_3_3)))
(assert (or (not P_1_3) (not P_4_3)))
(assert (or (not P_2_3) (not P_3_3)))
(assert (or (not P_2_3) (not P_4_3)))
(assert (or (not P_3_3) (not P_4_3)))
(assert (or (not P_0_4) (not P_1_4)))
(assert (or (not P_0_4) (not P_2_4)))
(assert (or (not P_0_4) (not P_3_4)))
(assert (or (not P_0_4) (not P_4_4)))
(assert (or (not P_1_4) (not P_2_4)))
(assert (or (not P_1_4) (not P_3_4)))
(assert (or (not P_1_4) (not P_4_4)))
(assert (or (not P_2_4) (not P_3_4)))
(assert (or (not P_2_4) (not P_4_4)))
(assert (or (not P_3_4) (not P_4_4)))
(assert (or (not P_0_5) (not P_1_5)))
(assert (or (not P_0_5) (not P_2_5)))
(assert (or (not P_0_5) (not P_3_5)))
(assert (or (not P_0_5) (not P_4_5)))
(assert (or (not P_1_5) (not P_2_5)))
(assert (or (not P_1_5) (not P_3_5)))
(assert (or (not P_1_5) (not P_4_5)))
(assert (or (not P_2_5) (not P_3_5)))
(assert (or (not P_2_5) (not P_4_5)))
(assert (or (not P_3_5) (not P_4_5)))
(assert (or (not P_0_6) (not P_1_6)))
(assert (or (not P_0_6) (not P_2_6)))
(assert (or (not P_0_6) (not P_3_6)))
(assert (or (not P_0_6) (not P_4_6)))
(assert (or (not P_1_6) (not P_2_6)))
(assert (or (not P_1_6) (not P_3_6)))
(assert (or (not P_1_6) (not P_4_6)))
(assert (or (not P_2_6) (not P_3_6)))
(assert (or (not P_2_6) (not P_4_6)))
(assert (or (not P_3_6) (not P_4_6)))
(assert (or (not P_0_7) (not P_1_7)))
(assert (or (not P_0_7) (not P_2_7)))
(assert (or (not P_0_7) (not P_3_7)))
(assert (or (not P_0_7) (not P_4_7)))
(assert (or (not P_1_7) (not P_2_7)))
(assert (or (not P_1_7) (not P_3_7)))
(assert (or (not P_1_7) (not P_4_7)))
(assert (or (not P_2_7) (not P_3_7)))
(assert (or (not P_2_7) (not P_4_7)))
(assert (or (not P_3_7) (not P_4_7)))
(assert (or (not P_0_8) (not P_1_8)))
(assert (or (not P_0_8) (not P_2_8)))
(assert (or (not P_0_8) (not P_3_8)))
(assert (or (not P_0_8) (not P_4_8)))
(assert (or (not P_1_8) (not P_2_8)))
(assert (or (not P_1_8) (not P_3_8)))
(assert (or (not P_1_8) (not P_4_8)))
(assert (or (not P_2_8) (not P_3_8)))
(assert (or (not P_2_8) (not P_4_8)))
(assert (or (not P_3_8) (not P_4_8)))
(assert (or (not P_0_9) (not P_1_9)))
(assert (or (not P_0_9) (not P_2_9)))
(assert (or (not P_0_9) (not P_3_9)))
(assert (or (not P_0_9) (not P_4_9)))
(assert (or (not P_1_9) (not P_2_9)))
(assert (or (not P_1_9) (not P_3_9)))
(assert (or (not P_1_9) (not P_4_9)))
(assert (or (not P_2_9) (not P_3_9)))
(assert (or (not P_2_9) (not P_4_9)))
(assert (or (not P_3_9) (not P_4_9)))
(assert (or (not P_0_10) (not P_1_10)))
(assert (or (not P_0_10) (not P_2_10)))
(assert (or (not P_0_10) (not P_3_10)))
(assert (or (not P_0_10) (not P_4_10)))
(assert (or (not P_1_10) (not P_2_10)))
(assert (or (not P_1_10) (not P_3_10)))
(assert (or (not P_1_10) (not P_4_10)))
(assert (or (not P_2_10) (not P_3_10)))
(assert (or (not P_2_10) (not P_4_10)))
(assert (or (not P_3_10) (not P_4_10)))
(assert (or (not P_0_11) (not P_1_11)))
(assert (or (not P_0_11) (not P_2_11)))
(assert (or (not P_0_11) (not P_3_11)))
(assert (or (not P_0_11) (not P_4_11)))
(assert (or (not P_1_11) (not P_2_11)))
(assert (or (not P_1_11) (not P_3_11)))
(assert (or (not P_1_11) (not P_4_11)))
(assert (or (not P_2_11) (not P_3_11)))
(assert (or (not P_2_11) (not P_4_11)))
(assert (or (not P_3_11) (not P_4_11)))
(assert (or (not P_0_12) (not P_1_12)))
(assert (or (not P_0_12) (not P_2_12)))
(assert (or (not P_0_12) (not P_3_12)))
(assert (or (not P_0_12) (not P_4_12)))
(assert (or (not P_1_12) (not P_2_12)))
(assert (or (not P_1_12) (not P_3_12)))
(assert (or (not P_1_12) (not P_4_12)))
(assert (or (not P_2_12) (not P_3_12)))
(assert (or (not P_2_12) (not P_4_12)))
(assert (or (not P_3_12) (not P_4_12)))
(assert (or (not P_0_13) (not P_1_13)))
(assert (or (not P_0_13) (not P_2_13)))
(assert (or (not P_0_13) (not P_3_13)))
(assert (or (not P_0_13) (not P_4_13)))
(assert (or (not P_1_13) (not P_2_13)))
(assert (or (not P_1_13) (not P_3_13)))
(assert (or (not P_1_13) (not P_4_13)))
(assert (or (not P_2_13) (not P_3_13)))
(assert (or (not P_2_13) (not P_4_13)))
(assert (or (not P_3_13) (not P_4_13)))
(assert (or (not P_0_14) (not P_1_14)))
(assert (or (not P_0_14) (not P_2_14)))
(assert (or (not P_0_14) (not P_3_14)))
(assert (or (not P_0_14) (not P_4_14)))
(assert (or (not P_1_14) (not P_2_14)))
(assert (or (not P_1_14) (not P_3_14)))
(assert (or (not P_1_14) (not P_4_14)))
(assert (or (not P_2_14) (not P_3_14)))
(assert (or (not P_2_14) (not P_4_14)))
(assert (or (not P_3_14) (not P_4_14)))
(assert (or (not P_0_15) (not P_1_15)))
(assert (or (not P_0_15) (not P_2_15)))
(assert (or (not P_0_15) (not P_3_15)))
(assert (or (not P_0_15) (not P_4_15)))
(assert (or (not P_1_15) (not P_2_15)))
(assert (or (not P_1_15) (not P_3_15)))
(assert (or (not P_1_15) (not P_4_15)))
(assert (or (not P_2_15) (not P_3_15)))
(assert (or (not P_2_15) (not P_4_15)))
(assert (or (not P_3_15) (not P_4_15)))
(assert (or (not P_0_16) (not P_1_16)))
(assert (or (not P_0_16) (not P_2_16)))
(assert (or (not P_0_16) (not P_3_16)))
(assert (or (not P_0_16) (not P_4_16)))
(assert (or (not P_1_16) (not P_2_16)))
(assert (or (not P_1_16) (not P_3_16)))
(assert (or (not P_1_16) (not P_4_16)))
(assert (or (not P_2_16) (not P_3_16)))
(assert (or (not P_2_16) (not P_4_16)))
(assert (or (not P_3_16) (not P_4_16)))
(assert (or (not P_0_17) (not P_1_17)))
(assert (or (not P_0_17) (not P_2_17)))
(assert (or (not P_0_17) (not P_3_17)))
(assert (or (not P_0_17) (not P_4_17)))
(assert (or (not P_1_17) (not P_2_17)))
(assert (or (not P_1_17) (not P_3_17)))
(assert (or (not P_1_17) (not P_4_17)))
(assert (or (not P_2_17) (not P_3_17)))
(assert (or (not P_2_17) (not P_4_17)))
(assert (or (not P_3_17) (not P_4_17)))
(assert (or (not P_0_18) (not P_1_18)))
(assert (or (not P_0_18) (not P_2_18)))
(assert (or (not P_0_18) (not P_3_18)))
(assert (or (not P_0_18) (not P_4_18)))
(assert (or (not P_1_18) (not P_2_18)))
(assert (or (not P_1_18) (not P_3_18)))
(assert (or (not P_1_18) (not P_4_18)))
(assert (or (not P_2_18) (not P_3_18)))
(assert (or (not P_2_18) (not P_4_18)))
(assert (or (not P_3_18) (not P_4_18)))
(assert (or (not P_0_19) (not P_1_19)))
(assert (or (not P_0_19) (not P_2_19)))
(assert (or (not P_0_19) (not P_3_19)))
(assert (or (not P_0_19) (not P_4_19)))
(assert (or (not P_1_19) (not P_2_19)))
(assert (or (not P_1_19) (not P_3_19)))
(assert (or (not P_1_19) (not P_4_19)))
(assert (or (not P_2_19) (not P_3_19)))
(assert (or (not P_2_19) (not P_4_19)))
(assert (or (not P_3_19) (not P_4_19)))
(check-sat)
(exit)
